\ LP format - for model browsing. Use MPS format to capture full model detail.
Maximize
  0 n_146
Subject To
 _equality_constraint_: - n_115 + 1.71728386121759 grb_one_input = 0
 value_assignment_constraint: n_106 = 1.612157819063042
 value_assignment_constraint: n_107 = 1.313227056791465
 value_assignment_constraint: n_108 = 0.3868858865562732
 value_assignment_constraint: n_109 = 0.6456654353712336
 value_assignment_constraint: n_110 = 0.2750951501650988
 value_assignment_constraint: n_111 = 0.5061552493945164
 value_assignment_constraint: n_112 = 1.350389790424068
 value_assignment_constraint: n_113 = 0.3194864936801644
 value_assignment_constraint: n_114 = 1.035114268359504
 value_assignment_constraint: n_115 = 1.715083055007639
 value_assignment_constraint: n_116 = 0.0369238962795676
 value_assignment_constraint: n_117 = 0.5390728263701214
 value_assignment_constraint: n_118 = 0.8126379226517199
 value_assignment_constraint: n_119 = 0.7939364348246147
 value_assignment_constraint: n_120 = 1.693564510772283
 value_assignment_constraint: n_121 = 0.1898315621582364
 value_assignment_constraint: n_122 = 1.130007997870079
 value_assignment_constraint: n_123 = 0.4900483708090409
 value_assignment_constraint: n_124 = 1.124873941141411
 value_assignment_constraint: n_125 = 1.627829905787255
 value_assignment_constraint: n_126 = 0.1828912472934265
 value_assignment_constraint: n_127 = 1.029185640361622
 value_assignment_constraint: n_128 = 0.1062318734476369
 value_assignment_constraint: n_129 = 0.7897321994464952
 value_assignment_constraint: n_130 = 0.8722276726359701
 value_assignment_constraint: n_131 = 0.4896177169515092
 value_assignment_constraint: n_132 = 1.22672133739769
 value_assignment_constraint: n_133 = 0.0653925528813555
 value_assignment_constraint: n_134 = 1.556532367405664
 value_assignment_constraint: n_135 = 1.323769224790742
 value_assignment_constraint: n_136 = 1.112012107037264
 value_assignment_constraint: n_137 = 0.2738245378267615
 value_assignment_constraint: n_138 = 1.231512825948933
 value_assignment_constraint: n_139 = 1.082024598722169
 value_assignment_constraint: n_140 = 1.607893395331783
 value_assignment_constraint: n_141 = 1.382464743134413
 value_assignment_constraint: n_142 = 1.023602246325619
 value_assignment_constraint: n_143 = 1.100347928661878
 value_assignment_constraint: n_144 = 1.521655487357599
 value_assignment_constraint: n_145 = 0.9819460937024255
 value_assignment_constraint: n_147 = 0.967274447082864
 value_assignment_constraint: n_148 = 0.1049114309236175
 value_assignment_constraint: n_149 = 0.5045002590050569
 value_assignment_constraint: n_150 = 1.265328188944389
 value_assignment_constraint: n_151 = 0.7969083133588212
 value_assignment_constraint: n_152 = 1.375527982648876
 value_assignment_constraint: n_153 = 0.3016107238581529
 value_assignment_constraint: n_154 = 0.7733788586756859
 value_assignment_constraint: n_155 = 0.591054031394878
Bounds
 n_106 free
 n_107 free
 n_108 free
 n_109 free
 n_110 free
 n_111 free
 n_112 free
 n_113 free
 n_114 free
 n_115 free
 n_116 free
 n_117 free
 n_118 free
 n_119 free
 n_120 free
 n_121 free
 n_122 free
 n_123 free
 n_124 free
 n_125 free
 n_126 free
 n_127 free
 n_128 free
 n_129 free
 n_130 free
 n_131 free
 n_132 free
 n_133 free
 n_134 free
 n_135 free
 n_136 free
 n_137 free
 n_138 free
 n_139 free
 n_140 free
 n_141 free
 n_142 free
 n_143 free
 n_144 free
 n_145 free
 n_146 free
 n_147 free
 n_148 free
 n_149 free
 n_150 free
 n_151 free
 n_152 free
 n_153 free
 n_154 free
 n_155 free
 grb_one_input = 1
End
